% File represents an instance of a Composite Structure problem to be solved by a CP framework
% Created on 2025-03-25 14:06:10.914
T = 26;
n = 9;
m = 12;
edges = [(2, 1),
(5, 4),
(7, 8),
(3, 2),
(6, 5),
(9, 8),
(1, 4),
(7, 4),
(2, 5),
(5, 8),
(3, 6),
(6, 9)];
counts = [|4, 2, 8, 4,
|6, 2, 8, 6,
|6, 2, 10, 8,
|4, 2, 4, 2,
|4, 2, 6, 2,
|6, 2, 8, 2,
|6, 2, 4, 2,
|2, 2, 2, 2,
|2, 2, 6, 2|];
